Instance Name : r103
Authors       : Shobb<shobb@narod.ru>
Date          : 2018-jun-12
Reference     : http://shobb.narod.ru/vrppd.html
Solution
Route 1 : 092 098 014 044 038 086 016 061 085 091 100 037
Route 2 : 042 043 015 057 041 074 072 073 021 058
Route 3 : 007 019 011 008 046 047 048 082 018 089
Route 4 : 071 065 078 034 035 081 077 028
Route 5 : 026 039 023 067 055 024 029 003
Route 6 : 027 069 030 009 066 020 051 001
Route 7 : 002 022 075 056 004 025 054
Route 8 : 036 064 049 063 090 032 070
Route 9 : 052 062 088 084 017 093 059
Route 10 : 050 033 076 079 010 031
Route 11 : 060 045 083 005 099 006
Route 12 : 094 096 095 097 087 013
Route 13 : 040 053 012 068 080
